
Gurobi 7.0.2 (win64, Python) logging started 03/26/17 23:03:43


Gurobi 7.0.2 (win64, Python) logging started 03/26/17 23:41:51


Gurobi 7.0.2 (win64, Python) logging started 03/26/17 23:56:40


Gurobi 7.0.2 (win64, Python) logging started 03/27/17 00:01:33


Gurobi 7.0.2 (win64, Python) logging started 03/27/17 00:03:20


Gurobi 7.0.2 (win64, Python) logging started 03/27/17 00:25:48


Gurobi 7.0.2 (win64, Python) logging started 03/27/17 00:32:38


Gurobi 7.0.2 (win64, Python) logging started 03/27/17 01:48:56


Gurobi 7.0.2 (win64, Python) logging started 03/27/17 01:49:48


Gurobi 7.0.2 (win64, Python) logging started 03/27/17 01:51:46


Gurobi 7.0.2 (win64, Python) logging started 03/27/17 02:19:49


Gurobi 7.0.2 (win64, Python) logging started 03/27/17 02:23:41


Gurobi 7.0.2 (win64, Python) logging started 03/27/17 02:34:53


Gurobi 7.0.2 (win64, Python) logging started 03/27/17 02:46:08


Gurobi 7.0.2 (win64, Python) logging started 03/27/17 13:32:33


Gurobi 7.0.2 (win64, Python) logging started 03/27/17 13:40:14


Gurobi 7.0.2 (win64, Python) logging started 03/27/17 14:05:20


Gurobi 7.0.2 (win64, Python) logging started 03/27/17 17:26:01


Gurobi 7.0.2 (win64, Python) logging started 03/27/17 17:30:19


Gurobi 7.0.2 (win64, Python) logging started 03/27/17 17:33:51


Gurobi 7.0.2 (win64, Python) logging started 03/27/17 18:00:50


Gurobi 7.0.2 (win64, Python) logging started 03/27/17 18:05:41


Gurobi 7.0.2 (win64, Python) logging started 03/27/17 18:08:05


Gurobi 7.0.2 (win64, Python) logging started 03/27/17 18:12:33


Gurobi 7.0.2 (win64, Python) logging started 03/27/17 22:37:51


Gurobi 7.0.2 (win64, Python) logging started 03/27/17 22:38:31


Gurobi 7.0.2 (win64, Python) logging started 03/27/17 22:42:04


Gurobi 7.0.2 (win64, Python) logging started 03/27/17 22:42:54


Gurobi 7.0.2 (win64, Python) logging started 03/27/17 23:14:42


Gurobi 7.0.2 (win64, Python) logging started 03/28/17 00:00:01

